LatticeConstant 1.0 Ang
%block LatticeVectors
 20.0000000 0.00000000 0.00000000
 0.00000000 20.00000000 0.00000000
 0.00000000 0.00000000 20.00000000
%endblock LatticeVectors

NumberOfAtoms 4
AtomicCoordinatesFormat Ang
%block AtomicCoordinatesAndAtomicSpecies
 -3.12130500  0.00000000  0.00000000 1 # 1: O
 -1.87819600 -0.00000000 -0.00000000 1 # 2: O
  2.10447800 -0.00000000 -0.00000000 2 # 3: H
  2.89501700  0.00000000 -0.00000000 2 # 4: H
%endblock AtomicCoordinatesAndAtomicSpecies

NumberOfSpecies 2
%block ChemicalSpeciesLabel
 1 8 O
 2 1 H
%endblock ChemicalSpeciesLabel
