LatticeConstant 1.0 Ang
%block LatticeVectors
 20.91300000 0.00000000 0.00000000
 0.00000000 25.38800000 0.00000000
 0.00000000 0.00000000 20.37200000
%endblock LatticeVectors

NumberOfAtoms 115
AtomicCoordinatesFormat Ang
%block AtomicCoordinatesAndAtomicSpecies
  -2.18600000 -18.18499900  15.84300000 1 #   1: O
  -0.78500000 -18.37500000  15.56600000 2 #   2: C
  -0.70400000 -19.02400000  14.07300000 2 #   3: C
  -1.35800000 -17.98100100  13.25100000 1 #   4: O
  -2.64700000 -18.24500100  12.73200000 2 #   5: C
  -3.23300000 -19.28800000  12.89200000 1 #   6: O
  -3.17400000 -17.14500000  11.96600000 2 #   7: C
  -4.55600000 -16.84499900  12.34100000 2 #   8: C
  -5.17600000 -15.71500000  11.58200000 2 #   9: C
  -4.45400000 -15.00800000  10.58000000 2 #  10: C
  -3.27200000 -15.35200000  10.34400000 2 #  11: C
  -2.53700000 -16.39600000  10.96800000 2 #  12: C
   0.75300000 -19.32000000  13.42400000 2 #  13: C
   0.90400000 -18.85700000  11.88800000 2 #  14: C
   0.76300000 -17.38500000  11.72600000 1 #  15: O
   1.69800000 -16.50200100  12.21500000 2 #  16: C
   2.69100000 -16.80200000  12.80800000 1 #  17: O
   1.27300000 -15.08900000  11.87700000 2 #  18: C
  -0.08700000 -19.38900000  10.81900000 2 #  19: C
   0.97100000 -19.95100000  10.00800000 1 #  20: O
   1.96700000 -19.48900000  10.94500000 2 #  21: C
   2.84600000 -20.66099900  11.49500000 2 #  22: C
   2.79000000 -20.81900000  13.00900000 2 #  23: C
   3.60100000 -21.95700100  13.40200000 1 #  24: O
   1.29500000 -20.90800100  13.58400000 2 #  25: C
   0.48500000 -21.94300100  12.74600000 2 #  26: C
   1.31400000 -21.56800100  15.06500000 2 #  27: C
   0.77800000 -22.65099900  15.23400000 1 #  28: O
   1.96500000 -20.86899900  16.26499900 2 #  29: C
   1.77400000 -21.74399900  17.45800000 1 #  30: O
   2.86000000 -22.35899900  18.04700100 2 #  31: C
   3.99100000 -22.25499900  17.68400000 1 #  32: O
   2.42000000 -23.19100000  19.21999900 2 #  33: C
   1.34900000 -19.48399900  16.47600000 2 #  34: C
   2.14100000 -18.35100000  16.32000000 2 #  35: C
   1.40300000 -16.97900000  16.39100100 2 #  36: C
   2.18200000 -15.84800000  15.86600000 1 #  37: O
   2.89900000 -15.13800000  16.72699900 2 #  38: C
   3.00200000 -15.31000000  17.90200000 1 #  39: O
   3.62000000 -13.97700000  15.99300000 2 #  40: C
   4.33300000 -13.22700000  16.95800000 1 #  41: O
   2.55300000 -13.13700000  15.24700000 2 #  42: C
   1.52900000 -12.78500000  16.22400100 3 #  43: N
   0.24300000 -12.53100000  15.88600000 2 #  44: C
  -0.16600000 -12.55800000  14.73100000 1 #  45: O
  -0.64300000 -12.24400000  17.04900000 2 #  46: C
  -0.45300000 -11.17700000  17.92499900 2 #  47: C
  -1.33000000 -10.96400000  19.02300100 2 #  48: C
  -2.41800000 -11.85600000  19.23300000 2 #  49: C
  -2.61400000 -12.91900000  18.36800000 2 #  50: C
  -1.75600000 -13.13700000  17.28500000 2 #  51: C
   3.18900000 -11.92700000  14.53000000 2 #  52: C
   3.58500000 -12.08800000  13.19200000 2 #  53: C
   4.18300000 -11.01600000  12.47800000 2 #  54: C
   4.37800000  -9.77800000  13.11500000 2 #  55: C
   3.98700000  -9.61400000  14.43200000 2 #  56: C
   3.38800000 -10.68500000  15.15500000 2 #  57: C
   0.05600000 -17.00900100  15.57100000 2 #  58: C
   3.63100000 -18.32900000  15.99600000 2 #  59: C
  -0.22100000 -19.34300000  16.78800000 2 #  60: C
  -0.40200000 -18.69000100  18.23300000 2 #  61: C
  -1.07500000 -20.62800000  16.88999900 2 #  62: C
  -2.52100000 -17.40700000  15.31100000 4 #  63: H
  -0.24500000 -18.13600000  14.08700000 4 #  64: H
  -3.69500000 -16.41099900  11.53000000 4 #  65: H
  -5.09900000 -17.67100000  12.19000000 4 #  66: H
  -4.56600000 -16.62200000  13.31600000 4 #  67: H
  -6.11600000 -15.41900000  11.75200000 4 #  68: H
  -4.78700000 -14.24600000  10.02500000 4 #  69: H
  -2.89800000 -14.76700000   9.62500000 4 #  70: H
  -1.59200000 -16.59900100  10.71000000 4 #  71: H
   0.18300000 -19.93800000  12.88200000 4 #  72: H
   1.63500000 -14.84700000  10.97700000 4 #  73: H
   0.27400000 -15.04300000  11.86700000 4 #  74: H
   1.63600000 -14.46500000  12.56900000 4 #  75: H
  -0.72500000 -20.08300000  11.15300000 4 #  76: H
  -0.60200000 -18.67799900  10.34000000 4 #  77: H
   1.25000000 -20.09800000  11.28300000 4 #  78: H
   2.53800000 -21.52000000  11.08600000 4 #  79: H
   3.79900000 -20.50200100  11.23900000 4 #  80: H
   2.32600000 -21.60800000  12.60600000 4 #  81: H
   4.49500000 -21.88900000  12.95800000 4 #  82: H
   0.17300000 -21.50600100  11.90200000 4 #  83: H
   1.07600000 -22.71999900  12.52900000 4 #  84: H
  -0.30100000 -22.25099900  13.28100000 4 #  85: H
   0.98300000 -20.99600000  16.40200000 4 #  86: H
   1.61500000 -22.76700000  19.63600000 4 #  87: H
   2.19400000 -24.11100000  18.90000000 4 #  88: H
   3.16500000 -23.23500100  19.88600000 4 #  89: H
   1.52000000 -17.16600000  15.41600000 4 #  90: H
   2.90300000 -13.69100000  16.62900000 4 #  91: H
   4.48800000 -12.30500000  16.60400000 4 #  92: H
   3.03400000 -12.62600000  15.95900000 4 #  93: H
   1.82300000 -11.95500000  16.69700100 4 #  94: H
   0.31800000 -10.56000000  17.76499900 4 #  95: H
  -1.18300000 -10.19300000  19.64300000 4 #  96: H
  -3.05200000 -11.73400000  19.99700000 4 #  97: H
  -3.38400000 -13.53700000  18.52700000 4 #  98: H
  -1.93600000 -13.91900000  16.68899900 4 #  99: H
   3.44000000 -12.97100000  12.74500000 4 # 100: H
   4.46700000 -11.13300000  11.52600000 4 # 101: H
   4.79700000  -9.01100000  12.62900000 4 # 102: H
   4.13700000  -8.72300000  14.86100000 4 # 103: H
   3.10600000 -10.56400000  16.10700000 4 # 104: H
   0.28500000 -16.78599900  14.62300000 4 # 105: H
  -0.53000000 -16.28900000  15.94300000 4 # 106: H
   3.80600000 -17.61599900  15.31700000 4 # 107: H
   4.14300000 -18.13600000  16.83300000 4 # 108: H
   3.89800000 -19.22100100  15.63100000 4 # 109: H
  -0.42400000 -17.69500000  18.13999900 4 # 110: H
  -1.26000000 -19.01499900  18.63200000 4 # 111: H
   0.36700000 -18.96100000  18.81200000 4 # 112: H
  -1.69900000 -20.66700000  16.10899900 4 # 113: H
  -0.46900000 -21.42300000  16.88200000 4 # 114: H
  -1.59700000 -20.60500000  17.74300000 4 # 115: H
%endblock AtomicCoordinatesAndAtomicSpecies

NumberOfSpecies 4
%block ChemicalSpeciesLabel
 1 8 O
 2 6 C
 3 7 N
 4 1 H
%endblock ChemicalSpeciesLabel
