LatticeConstant 1.0 Ang
%block LatticeVectors
 16.20052800 0.00000000 0.00000000
 0.00000000 17.01300000 0.00000000
 0.00000000 0.00000000 10.06000000
%endblock LatticeVectors

NumberOfAtoms 19
AtomicCoordinatesFormat Ang
%block AtomicCoordinatesAndAtomicSpecies
 -0.24100000  1.24100000 -0.00300000 1 #  1: C
  0.75400000  2.24600000 -0.00200000 1 #  2: C
  2.11400000  1.89000000  0.00600000 1 #  3: C
  2.50600000  0.54200000  0.01300000 1 #  4: C
  1.84300000 -1.84900000 -0.01100000 1 #  5: C
  0.83700000 -2.83200000 -0.01900000 1 #  6: C
 -0.51100000 -2.47100000 -0.01100000 1 #  7: C
 -0.86700000 -1.11600000 -0.00700000 1 #  8: C
  0.14400000 -0.12200000 -0.00600000 1 #  9: C
  1.51600000 -0.48500000 -0.00300000 1 # 10: C
 -1.71234100  1.62251500 -0.00148000 2 # 11: O
  0.49500000  3.21200000 -0.00700000 3 # 12: H
  2.81200000  2.60600000  0.00700000 3 # 13: H
  3.48000000  0.31600000  0.02900000 3 # 14: H
 -1.83400000 -0.86100000 -0.00500000 3 # 15: H
 -1.21700000 -3.17900000 -0.00800000 3 # 16: H
  1.08400000 -3.80100000 -0.03100000 3 # 17: H
  2.80400000 -2.12400000 -0.01100000 3 # 18: H
 -2.72052800  0.60292700 -0.00076000 3 # 19: H
%endblock AtomicCoordinatesAndAtomicSpecies

NumberOfSpecies 3
%block ChemicalSpeciesLabel
 1 6 C
 2 8 O
 3 1 H
%endblock ChemicalSpeciesLabel
